NAME /Users/henri/Research/solvers/instances/idol-instances/robust/collection/spp_dkp_Lefebvre_et_al_2026/shortest_path_8_1/uncertainty_sets/discrete_knapsack
ROWS
 N  OBJ
 L  primal_lower
COLUMNS
    MARKER    'MARKER'                 'INTORG'
    y[0,2]     OBJ        0
    y[0,2]     primal_lower -0.56
    y[0,3]     OBJ        0
    y[0,3]     primal_lower -2.94
    y[0,5]     OBJ        0
    y[0,5]     primal_lower -0.64
    y[0,6]     OBJ        0
    y[0,6]     primal_lower -1.16
    y[0,7]     OBJ        0
    y[0,7]     primal_lower -1.58
    y[1,2]     OBJ        0
    y[1,2]     primal_lower -4.15
    y[1,3]     OBJ        0
    y[1,3]     primal_lower -3.21
    y[1,4]     OBJ        0
    y[1,4]     primal_lower -2.61
    y[1,5]     OBJ        0
    y[1,5]     primal_lower -0.14
    y[1,6]     OBJ        0
    y[1,6]     primal_lower -3.54
    y[2,0]     OBJ        0
    y[2,0]     primal_lower -1.91
    y[2,1]     OBJ        0
    y[2,1]     primal_lower -3.87
    y[2,3]     OBJ        0
    y[2,3]     primal_lower -1.23
    y[2,4]     OBJ        0
    y[2,4]     primal_lower -0.27
    y[2,5]     OBJ        0
    y[2,5]     primal_lower -4.18
    y[2,6]     OBJ        0
    y[2,6]     primal_lower -1.07
    y[2,7]     OBJ        0
    y[2,7]     primal_lower -1.95
    y[3,0]     OBJ        0
    y[3,0]     primal_lower -1.53
    y[3,1]     OBJ        0
    y[3,1]     primal_lower -0.37
    y[3,2]     OBJ        0
    y[3,2]     primal_lower -4.07
    y[3,4]     OBJ        0
    y[3,4]     primal_lower -4.1
    y[3,5]     OBJ        0
    y[3,5]     primal_lower -4.69
    y[3,6]     OBJ        0
    y[3,6]     primal_lower -1.86
    y[4,1]     OBJ        0
    y[4,1]     primal_lower -4.61
    y[4,2]     OBJ        0
    y[4,2]     primal_lower -2.15
    y[4,3]     OBJ        0
    y[4,3]     primal_lower -3.23
    y[4,5]     OBJ        0
    y[4,5]     primal_lower -0.4
    y[4,6]     OBJ        0
    y[4,6]     primal_lower -4.33
    y[5,0]     OBJ        0
    y[5,0]     primal_lower -1.44
    y[5,1]     OBJ        0
    y[5,1]     primal_lower -1.27
    y[5,2]     OBJ        0
    y[5,2]     primal_lower -0.02
    y[5,3]     OBJ        0
    y[5,3]     primal_lower -2.62
    y[5,4]     OBJ        0
    y[5,4]     primal_lower -2.3
    y[5,6]     OBJ        0
    y[5,6]     primal_lower -3.07
    y[5,7]     OBJ        0
    y[5,7]     primal_lower -4.72
    y[6,0]     OBJ        0
    y[6,0]     primal_lower -4.39
    y[6,1]     OBJ        0
    y[6,1]     primal_lower -4.39
    y[6,2]     OBJ        0
    y[6,2]     primal_lower -2.53
    y[6,3]     OBJ        0
    y[6,3]     primal_lower -0.5
    y[6,4]     OBJ        0
    y[6,4]     primal_lower -0.87
    y[6,5]     OBJ        0
    y[6,5]     primal_lower -4.6
    y[6,7]     OBJ        0
    y[6,7]     primal_lower -1.99
    y[7,0]     OBJ        0
    y[7,0]     primal_lower -4.17
    y[7,2]     OBJ        0
    y[7,2]     primal_lower -3.24
    y[7,5]     OBJ        0
    y[7,5]     primal_lower -3.03
    y[7,6]     OBJ        0
    y[7,6]     primal_lower -1.33
    u[0,2]     OBJ        0
    u[0,2]     primal_lower 58
    u[0,3]     OBJ        0
    u[0,3]     primal_lower 35
    u[0,5]     OBJ        0
    u[0,5]     primal_lower 35
    u[0,6]     OBJ        0
    u[0,6]     primal_lower 51
    u[0,7]     OBJ        0
    u[0,7]     primal_lower 73
    u[1,2]     OBJ        0
    u[1,2]     primal_lower 49
    u[1,3]     OBJ        0
    u[1,3]     primal_lower 30
    u[1,4]     OBJ        0
    u[1,4]     primal_lower 85
    u[1,5]     OBJ        0
    u[1,5]     primal_lower 39
    u[1,6]     OBJ        0
    u[1,6]     primal_lower 82
    u[2,0]     OBJ        0
    u[2,0]     primal_lower 92
    u[2,1]     OBJ        0
    u[2,1]     primal_lower 58
    u[2,3]     OBJ        0
    u[2,3]     primal_lower 4
    u[2,4]     OBJ        0
    u[2,4]     primal_lower 58
    u[2,5]     OBJ        0
    u[2,5]     primal_lower 90
    u[2,6]     OBJ        0
    u[2,6]     primal_lower 76
    u[2,7]     OBJ        0
    u[2,7]     primal_lower 8
    u[3,0]     OBJ        0
    u[3,0]     primal_lower 95
    u[3,1]     OBJ        0
    u[3,1]     primal_lower 57
    u[3,2]     OBJ        0
    u[3,2]     primal_lower 67
    u[3,4]     OBJ        0
    u[3,4]     primal_lower 18
    u[3,5]     OBJ        0
    u[3,5]     primal_lower 96
    u[3,6]     OBJ        0
    u[3,6]     primal_lower 70
    u[4,1]     OBJ        0
    u[4,1]     primal_lower 28
    u[4,2]     OBJ        0
    u[4,2]     primal_lower 55
    u[4,3]     OBJ        0
    u[4,3]     primal_lower 24
    u[4,5]     OBJ        0
    u[4,5]     primal_lower 95
    u[4,6]     OBJ        0
    u[4,6]     primal_lower 11
    u[5,0]     OBJ        0
    u[5,0]     primal_lower 95
    u[5,1]     OBJ        0
    u[5,1]     primal_lower 24
    u[5,2]     OBJ        0
    u[5,2]     primal_lower 3
    u[5,3]     OBJ        0
    u[5,3]     primal_lower 77
    u[5,4]     OBJ        0
    u[5,4]     primal_lower 68
    u[5,6]     OBJ        0
    u[5,6]     primal_lower 51
    u[5,7]     OBJ        0
    u[5,7]     primal_lower 23
    u[6,0]     OBJ        0
    u[6,0]     primal_lower 63
    u[6,1]     OBJ        0
    u[6,1]     primal_lower 96
    u[6,2]     OBJ        0
    u[6,2]     primal_lower 27
    u[6,3]     OBJ        0
    u[6,3]     primal_lower 29
    u[6,4]     OBJ        0
    u[6,4]     primal_lower 62
    u[6,5]     OBJ        0
    u[6,5]     primal_lower 100
    u[6,7]     OBJ        0
    u[6,7]     primal_lower 6
    u[7,0]     OBJ        0
    u[7,0]     primal_lower 42
    u[7,2]     OBJ        0
    u[7,2]     primal_lower 88
    u[7,5]     OBJ        0
    u[7,5]     primal_lower 27
    u[7,6]     OBJ        0
    u[7,6]     primal_lower 25
    MARKER    'MARKER'                 'INTEND'
RHS
    RHS       primal_lower 222
BOUNDS
 LI BND       y[0,2]     0
 UI BND       y[0,2]     1
 LI BND       y[0,3]     0
 UI BND       y[0,3]     1
 LI BND       y[0,5]     0
 UI BND       y[0,5]     1
 LI BND       y[0,6]     0
 UI BND       y[0,6]     1
 LI BND       y[0,7]     0
 UI BND       y[0,7]     1
 LI BND       y[1,2]     0
 UI BND       y[1,2]     1
 LI BND       y[1,3]     0
 UI BND       y[1,3]     1
 LI BND       y[1,4]     0
 UI BND       y[1,4]     1
 LI BND       y[1,5]     0
 UI BND       y[1,5]     1
 LI BND       y[1,6]     0
 UI BND       y[1,6]     1
 LI BND       y[2,0]     0
 UI BND       y[2,0]     1
 LI BND       y[2,1]     0
 UI BND       y[2,1]     1
 LI BND       y[2,3]     0
 UI BND       y[2,3]     1
 LI BND       y[2,4]     0
 UI BND       y[2,4]     1
 LI BND       y[2,5]     0
 UI BND       y[2,5]     1
 LI BND       y[2,6]     0
 UI BND       y[2,6]     1
 LI BND       y[2,7]     0
 UI BND       y[2,7]     1
 LI BND       y[3,0]     0
 UI BND       y[3,0]     1
 LI BND       y[3,1]     0
 UI BND       y[3,1]     1
 LI BND       y[3,2]     0
 UI BND       y[3,2]     1
 LI BND       y[3,4]     0
 UI BND       y[3,4]     1
 LI BND       y[3,5]     0
 UI BND       y[3,5]     1
 LI BND       y[3,6]     0
 UI BND       y[3,6]     1
 LI BND       y[4,1]     0
 UI BND       y[4,1]     1
 LI BND       y[4,2]     0
 UI BND       y[4,2]     1
 LI BND       y[4,3]     0
 UI BND       y[4,3]     1
 LI BND       y[4,5]     0
 UI BND       y[4,5]     1
 LI BND       y[4,6]     0
 UI BND       y[4,6]     1
 LI BND       y[5,0]     0
 UI BND       y[5,0]     1
 LI BND       y[5,1]     0
 UI BND       y[5,1]     1
 LI BND       y[5,2]     0
 UI BND       y[5,2]     1
 LI BND       y[5,3]     0
 UI BND       y[5,3]     1
 LI BND       y[5,4]     0
 UI BND       y[5,4]     1
 LI BND       y[5,6]     0
 UI BND       y[5,6]     1
 LI BND       y[5,7]     0
 UI BND       y[5,7]     1
 LI BND       y[6,0]     0
 UI BND       y[6,0]     1
 LI BND       y[6,1]     0
 UI BND       y[6,1]     1
 LI BND       y[6,2]     0
 UI BND       y[6,2]     1
 LI BND       y[6,3]     0
 UI BND       y[6,3]     1
 LI BND       y[6,4]     0
 UI BND       y[6,4]     1
 LI BND       y[6,5]     0
 UI BND       y[6,5]     1
 LI BND       y[6,7]     0
 UI BND       y[6,7]     1
 LI BND       y[7,0]     0
 UI BND       y[7,0]     1
 LI BND       y[7,2]     0
 UI BND       y[7,2]     1
 LI BND       y[7,5]     0
 UI BND       y[7,5]     1
 LI BND       y[7,6]     0
 UI BND       y[7,6]     1
 LI BND       u[0,2]     0
 UI BND       u[0,2]     1
 LI BND       u[0,3]     0
 UI BND       u[0,3]     1
 LI BND       u[0,5]     0
 UI BND       u[0,5]     1
 LI BND       u[0,6]     0
 UI BND       u[0,6]     1
 LI BND       u[0,7]     0
 UI BND       u[0,7]     1
 LI BND       u[1,2]     0
 UI BND       u[1,2]     1
 LI BND       u[1,3]     0
 UI BND       u[1,3]     1
 LI BND       u[1,4]     0
 UI BND       u[1,4]     1
 LI BND       u[1,5]     0
 UI BND       u[1,5]     1
 LI BND       u[1,6]     0
 UI BND       u[1,6]     1
 LI BND       u[2,0]     0
 UI BND       u[2,0]     1
 LI BND       u[2,1]     0
 UI BND       u[2,1]     1
 LI BND       u[2,3]     0
 UI BND       u[2,3]     1
 LI BND       u[2,4]     0
 UI BND       u[2,4]     1
 LI BND       u[2,5]     0
 UI BND       u[2,5]     1
 LI BND       u[2,6]     0
 UI BND       u[2,6]     1
 LI BND       u[2,7]     0
 UI BND       u[2,7]     1
 LI BND       u[3,0]     0
 UI BND       u[3,0]     1
 LI BND       u[3,1]     0
 UI BND       u[3,1]     1
 LI BND       u[3,2]     0
 UI BND       u[3,2]     1
 LI BND       u[3,4]     0
 UI BND       u[3,4]     1
 LI BND       u[3,5]     0
 UI BND       u[3,5]     1
 LI BND       u[3,6]     0
 UI BND       u[3,6]     1
 LI BND       u[4,1]     0
 UI BND       u[4,1]     1
 LI BND       u[4,2]     0
 UI BND       u[4,2]     1
 LI BND       u[4,3]     0
 UI BND       u[4,3]     1
 LI BND       u[4,5]     0
 UI BND       u[4,5]     1
 LI BND       u[4,6]     0
 UI BND       u[4,6]     1
 LI BND       u[5,0]     0
 UI BND       u[5,0]     1
 LI BND       u[5,1]     0
 UI BND       u[5,1]     1
 LI BND       u[5,2]     0
 UI BND       u[5,2]     1
 LI BND       u[5,3]     0
 UI BND       u[5,3]     1
 LI BND       u[5,4]     0
 UI BND       u[5,4]     1
 LI BND       u[5,6]     0
 UI BND       u[5,6]     1
 LI BND       u[5,7]     0
 UI BND       u[5,7]     1
 LI BND       u[6,0]     0
 UI BND       u[6,0]     1
 LI BND       u[6,1]     0
 UI BND       u[6,1]     1
 LI BND       u[6,2]     0
 UI BND       u[6,2]     1
 LI BND       u[6,3]     0
 UI BND       u[6,3]     1
 LI BND       u[6,4]     0
 UI BND       u[6,4]     1
 LI BND       u[6,5]     0
 UI BND       u[6,5]     1
 LI BND       u[6,7]     0
 UI BND       u[6,7]     1
 LI BND       u[7,0]     0
 UI BND       u[7,0]     1
 LI BND       u[7,2]     0
 UI BND       u[7,2]     1
 LI BND       u[7,5]     0
 UI BND       u[7,5]     1
 LI BND       u[7,6]     0
 UI BND       u[7,6]     1
ENDATA
